p cnf 166 331
1 2 3 4 5 0
-1 -2 0
-1 -3 0
-1 -4 0
-1 -5 0
-2 -3 0
-2 -4 0
-2 -5 0
-3 -4 0
-3 -5 0
-4 -5 0
-1 -117 62 0
-12 -118 68 0
-13 -119 74 0
-14 -120 80 0
-15 -121 86 0
-16 -122 92 0
-17 -123 98 0
-18 -124 104 0
-19 -125 110 0
-20 -126 116 0
-2 -127 62 0
-22 -128 68 0
-23 -129 74 0
-24 -130 80 0
-25 -131 86 0
-26 -132 92 0
-27 -133 98 0
-28 -134 104 0
-29 -135 110 0
-30 -136 116 0
-3 -137 62 0
-32 -138 68 0
-33 -139 74 0
-34 -140 80 0
-35 -141 86 0
-36 -142 92 0
-37 -143 98 0
-38 -144 104 0
-39 -145 110 0
-40 -146 116 0
-4 -147 62 0
-42 -148 68 0
-43 -149 74 0
-44 -150 80 0
-45 -151 86 0
-46 -152 92 0
-47 -153 98 0
-48 -154 104 0
-49 -155 110 0
-50 -156 116 0
-5 -157 62 0
-52 -158 68 0
-53 -159 74 0
-54 -160 80 0
-55 -161 86 0
-56 -162 92 0
-57 -163 98 0
-58 -164 104 0
-59 -165 110 0
-60 -166 116 0
-1 12 0
1 -12 0
-12 13 0
12 -13 0
-13 14 0
13 -14 0
-14 15 0
14 -15 0
-15 16 0
15 -16 0
-16 17 0
16 -17 0
-17 18 0
17 -18 0
-18 19 0
18 -19 0
-19 20 0
19 -20 0
-20 21 0
20 -21 0
-2 22 0
2 -22 0
-22 23 0
22 -23 0
-23 24 0
23 -24 0
-24 25 0
24 -25 0
-25 26 0
25 -26 0
-26 27 0
26 -27 0
-27 28 0
27 -28 0
-28 29 0
28 -29 0
-29 30 0
29 -30 0
-30 31 0
30 -31 0
-3 32 0
3 -32 0
-32 33 0
32 -33 0
-33 34 0
33 -34 0
-34 35 0
34 -35 0
-35 36 0
35 -36 0
-36 37 0
36 -37 0
-37 38 0
37 -38 0
-38 39 0
38 -39 0
-39 40 0
39 -40 0
-40 41 0
40 -41 0
-4 42 0
4 -42 0
-42 43 0
42 -43 0
-43 44 0
43 -44 0
-44 45 0
44 -45 0
-45 46 0
45 -46 0
-46 47 0
46 -47 0
-47 48 0
47 -48 0
-48 49 0
48 -49 0
-49 50 0
49 -50 0
-50 51 0
50 -51 0
-5 52 0
5 -52 0
-52 53 0
52 -53 0
-53 54 0
53 -54 0
-54 55 0
54 -55 0
-55 56 0
55 -56 0
-56 57 0
56 -57 0
-57 58 0
57 -58 0
-58 59 0
58 -59 0
-59 60 0
59 -60 0
-60 61 0
60 -61 0
-6 62 0
-1 -117 7 0
-7 1 0
-7 117 0
-2 -127 8 0
-8 2 0
-8 127 0
-3 -137 9 0
-9 3 0
-9 137 0
-4 -147 10 0
-10 4 0
-10 147 0
-5 -157 11 0
-11 5 0
-11 157 0
7 8 9 10 11 6 -62 0
-62 68 0
-12 -118 63 0
-63 12 0
-63 118 0
-22 -128 64 0
-64 22 0
-64 128 0
-32 -138 65 0
-65 32 0
-65 138 0
-42 -148 66 0
-66 42 0
-66 148 0
-52 -158 67 0
-67 52 0
-67 158 0
63 64 65 66 67 62 -68 0
-68 74 0
-13 -119 69 0
-69 13 0
-69 119 0
-23 -129 70 0
-70 23 0
-70 129 0
-33 -139 71 0
-71 33 0
-71 139 0
-43 -149 72 0
-72 43 0
-72 149 0
-53 -159 73 0
-73 53 0
-73 159 0
69 70 71 72 73 68 -74 0
-74 80 0
-14 -120 75 0
-75 14 0
-75 120 0
-24 -130 76 0
-76 24 0
-76 130 0
-34 -140 77 0
-77 34 0
-77 140 0
-44 -150 78 0
-78 44 0
-78 150 0
-54 -160 79 0
-79 54 0
-79 160 0
75 76 77 78 79 74 -80 0
-80 86 0
-15 -121 81 0
-81 15 0
-81 121 0
-25 -131 82 0
-82 25 0
-82 131 0
-35 -141 83 0
-83 35 0
-83 141 0
-45 -151 84 0
-84 45 0
-84 151 0
-55 -161 85 0
-85 55 0
-85 161 0
81 82 83 84 85 80 -86 0
-86 92 0
-16 -122 87 0
-87 16 0
-87 122 0
-26 -132 88 0
-88 26 0
-88 132 0
-36 -142 89 0
-89 36 0
-89 142 0
-46 -152 90 0
-90 46 0
-90 152 0
-56 -162 91 0
-91 56 0
-91 162 0
87 88 89 90 91 86 -92 0
-92 98 0
-17 -123 93 0
-93 17 0
-93 123 0
-27 -133 94 0
-94 27 0
-94 133 0
-37 -143 95 0
-95 37 0
-95 143 0
-47 -153 96 0
-96 47 0
-96 153 0
-57 -163 97 0
-97 57 0
-97 163 0
93 94 95 96 97 92 -98 0
-98 104 0
-18 -124 99 0
-99 18 0
-99 124 0
-28 -134 100 0
-100 28 0
-100 134 0
-38 -144 101 0
-101 38 0
-101 144 0
-48 -154 102 0
-102 48 0
-102 154 0
-58 -164 103 0
-103 58 0
-103 164 0
99 100 101 102 103 98 -104 0
-104 110 0
-19 -125 105 0
-105 19 0
-105 125 0
-29 -135 106 0
-106 29 0
-106 135 0
-39 -145 107 0
-107 39 0
-107 145 0
-49 -155 108 0
-108 49 0
-108 155 0
-59 -165 109 0
-109 59 0
-109 165 0
105 106 107 108 109 104 -110 0
-110 116 0
-20 -126 111 0
-111 20 0
-111 126 0
-30 -136 112 0
-112 30 0
-112 136 0
-40 -146 113 0
-113 40 0
-113 146 0
-50 -156 114 0
-114 50 0
-114 156 0
-60 -166 115 0
-115 60 0
-115 166 0
111 112 113 114 115 110 -116 0
